# Objective value = 7
x0,1_1 1
x0,1_3 0
x0,1_4 0
x0,1_5 0
x0,1_9 0
x0,1_14 0
x0,1_17 0
x0,1_19 0
x0,1_21 0
x0,1_27 0
x0,1_28 0
x0,1_30 0
x0,1_34 0
x0,1_35 0
x0,2_1 0
x0,2_3 0
x0,2_4 0
x0,2_5 1
x0,2_9 0
x0,2_14 0
x0,2_17 0
x0,2_19 0
x0,2_21 0
x0,2_27 0
x0,2_28 0
x0,2_30 0
x0,2_34 0
x0,2_35 0
x0,3_1 0
x0,3_3 0
x0,3_4 0
x0,3_5 0
x0,3_9 0
x0,3_14 0
x0,3_17 0
x0,3_19 1
x0,3_21 0
x0,3_27 0
x0,3_28 0
x0,3_30 0
x0,3_34 0
x0,3_35 0
x0,4_1 0
x0,4_3 0
x0,4_4 0
x0,4_5 0
x0,4_9 0
x0,4_14 0
x0,4_17 0
x0,4_19 0
x0,4_21 0
x0,4_27 0
x0,4_28 0
x0,4_30 0
x0,4_34 0
x0,4_35 0
x0,5_1 0
x0,5_3 0
x0,5_4 0
x0,5_5 0
x0,5_9 0
x0,5_14 0
x0,5_17 0
x0,5_19 0
x0,5_21 0
x0,5_27 0
x0,5_28 1
x0,5_30 0
x0,5_34 0
x0,5_35 0
x0,6_1 0
x0,6_3 0
x0,6_4 0
x0,6_5 0
x0,6_9 0
x0,6_14 0
x0,6_17 0
x0,6_19 0
x0,6_21 0
x0,6_27 0
x0,6_28 0
x0,6_30 0
x0,6_34 0
x0,6_35 1
x0,7_1 0
x0,7_3 0
x0,7_4 0
x0,7_5 0
x0,7_9 0
x0,7_14 0
x0,7_17 0
x0,7_19 0
x0,7_21 0
x0,7_27 0
x0,7_28 0
x0,7_30 0
x0,7_34 0
x0,7_35 0
x0,8_1 0
x0,8_3 0
x0,8_4 0
x0,8_5 0
x0,8_9 0
x0,8_14 0
x0,8_17 0
x0,8_19 0
x0,8_21 0
x0,8_27 0
x0,8_28 0
x0,8_30 0
x0,8_34 0
x0,8_35 0
x0,9_1 0
x0,9_3 0
x0,9_4 0
x0,9_5 0
x0,9_9 0
x0,9_14 0
x0,9_17 0
x0,9_19 0
x0,9_21 0
x0,9_27 0
x0,9_28 0
x0,9_30 0
x0,9_34 0
x0,9_35 0
x0,10_1 0
x0,10_3 0
x0,10_4 0
x0,10_5 0
x0,10_9 0
x0,10_14 0
x0,10_17 0
x0,10_19 0
x0,10_21 0
x0,10_27 0
x0,10_28 0
x0,10_30 0
x0,10_34 0
x0,10_35 0
x0,11_1 0
x0,11_3 0
x0,11_4 0
x0,11_5 0
x0,11_9 0
x0,11_14 0
x0,11_17 0
x0,11_19 0
x0,11_21 0
x0,11_27 0
x0,11_28 0
x0,11_30 0
x0,11_34 0
x0,11_35 0
x0,12_1 0
x0,12_3 0
x0,12_4 0
x0,12_5 0
x0,12_9 0
x0,12_14 0
x0,12_17 0
x0,12_19 0
x0,12_21 0
x0,12_27 0
x0,12_28 0
x0,12_30 0
x0,12_34 0
x0,12_35 0
x0,13_1 0
x0,13_3 0
x0,13_4 0
x0,13_5 0
x0,13_9 0
x0,13_14 0
x0,13_17 0
x0,13_19 0
x0,13_21 0
x0,13_27 0
x0,13_28 0
x0,13_30 0
x0,13_34 0
x0,13_35 0
x0,14_1 0
x0,14_3 0
x0,14_4 0
x0,14_5 0
x0,14_9 0
x0,14_14 0
x0,14_17 0
x0,14_19 0
x0,14_21 0
x0,14_27 0
x0,14_28 0
x0,14_30 0
x0,14_34 0
x0,14_35 0
x1,2_1 0
x1,2_3 0
x1,2_4 1
x1,2_5 0
x1,2_9 0
x1,2_14 0
x1,2_17 0
x1,2_19 0
x1,2_21 0
x1,2_27 0
x1,2_28 0
x1,2_30 0
x1,2_34 0
x1,2_35 0
x1,3_1 0
x1,3_3 0
x1,3_4 0
x1,3_5 0
x1,3_9 0
x1,3_14 0
x1,3_17 0
x1,3_19 0
x1,3_21 0
x1,3_27 0
x1,3_28 0
x1,3_30 0
x1,3_34 0
x1,3_35 0
x1,4_1 0
x1,4_3 0
x1,4_4 0
x1,4_5 0
x1,4_9 0
x1,4_14 0
x1,4_17 0
x1,4_19 0
x1,4_21 1
x1,4_27 0
x1,4_28 0
x1,4_30 0
x1,4_34 0
x1,4_35 0
x1,5_1 0
x1,5_3 0
x1,5_4 0
x1,5_5 0
x1,5_9 0
x1,5_14 0
x1,5_17 0
x1,5_19 0
x1,5_21 0
x1,5_27 1
x1,5_28 0
x1,5_30 0
x1,5_34 0
x1,5_35 0
x1,6_1 0
x1,6_3 0
x1,6_4 0
x1,6_5 0
x1,6_9 0
x1,6_14 0
x1,6_17 0
x1,6_19 0
x1,6_21 0
x1,6_27 0
x1,6_28 0
x1,6_30 0
x1,6_34 1
x1,6_35 0
x1,7_1 0
x1,7_3 0
x1,7_4 0
x1,7_5 0
x1,7_9 0
x1,7_14 0
x1,7_17 0
x1,7_19 0
x1,7_21 0
x1,7_27 0
x1,7_28 0
x1,7_30 0
x1,7_34 0
x1,7_35 0
x1,8_1 0
x1,8_3 0
x1,8_4 0
x1,8_5 0
x1,8_9 0
x1,8_14 0
x1,8_17 0
x1,8_19 0
x1,8_21 0
x1,8_27 0
x1,8_28 0
x1,8_30 0
x1,8_34 0
x1,8_35 0
x1,9_1 0
x1,9_3 0
x1,9_4 0
x1,9_5 0
x1,9_9 0
x1,9_14 0
x1,9_17 0
x1,9_19 0
x1,9_21 0
x1,9_27 0
x1,9_28 0
x1,9_30 0
x1,9_34 0
x1,9_35 0
x1,10_1 0
x1,10_3 0
x1,10_4 0
x1,10_5 0
x1,10_9 0
x1,10_14 0
x1,10_17 0
x1,10_19 0
x1,10_21 0
x1,10_27 0
x1,10_28 0
x1,10_30 0
x1,10_34 0
x1,10_35 0
x1,11_1 0
x1,11_3 0
x1,11_4 0
x1,11_5 0
x1,11_9 0
x1,11_14 0
x1,11_17 0
x1,11_19 0
x1,11_21 0
x1,11_27 0
x1,11_28 0
x1,11_30 0
x1,11_34 0
x1,11_35 0
x1,12_1 0
x1,12_3 0
x1,12_4 0
x1,12_5 0
x1,12_9 0
x1,12_14 0
x1,12_17 0
x1,12_19 0
x1,12_21 0
x1,12_27 0
x1,12_28 0
x1,12_30 0
x1,12_34 0
x1,12_35 0
x1,13_1 0
x1,13_3 0
x1,13_4 0
x1,13_5 0
x1,13_9 0
x1,13_14 0
x1,13_17 0
x1,13_19 0
x1,13_21 0
x1,13_27 0
x1,13_28 0
x1,13_30 0
x1,13_34 0
x1,13_35 0
x1,14_1 0
x1,14_3 0
x1,14_4 0
x1,14_5 0
x1,14_9 0
x1,14_14 0
x1,14_17 0
x1,14_19 0
x1,14_21 0
x1,14_27 0
x1,14_28 0
x1,14_30 0
x1,14_34 0
x1,14_35 0
x2,3_1 0
x2,3_3 0
x2,3_4 0
x2,3_5 0
x2,3_9 0
x2,3_14 1
x2,3_17 0
x2,3_19 0
x2,3_21 0
x2,3_27 0
x2,3_28 0
x2,3_30 0
x2,3_34 0
x2,3_35 0
x2,4_1 0
x2,4_3 0
x2,4_4 0
x2,4_5 0
x2,4_9 0
x2,4_14 0
x2,4_17 1
x2,4_19 0
x2,4_21 0
x2,4_27 0
x2,4_28 0
x2,4_30 0
x2,4_34 0
x2,4_35 0
x2,5_1 0
x2,5_3 0
x2,5_4 0
x2,5_5 0
x2,5_9 0
x2,5_14 0
x2,5_17 0
x2,5_19 0
x2,5_21 0
x2,5_27 0
x2,5_28 0
x2,5_30 0
x2,5_34 0
x2,5_35 0
x2,6_1 0
x2,6_3 0
x2,6_4 0
x2,6_5 0
x2,6_9 0
x2,6_14 0
x2,6_17 0
x2,6_19 0
x2,6_21 0
x2,6_27 0
x2,6_28 0
x2,6_30 1
x2,6_34 0
x2,6_35 0
x2,7_1 0
x2,7_3 0
x2,7_4 0
x2,7_5 0
x2,7_9 0
x2,7_14 0
x2,7_17 0
x2,7_19 0
x2,7_21 0
x2,7_27 0
x2,7_28 0
x2,7_30 0
x2,7_34 0
x2,7_35 0
x2,8_1 0
x2,8_3 0
x2,8_4 0
x2,8_5 0
x2,8_9 0
x2,8_14 0
x2,8_17 0
x2,8_19 0
x2,8_21 0
x2,8_27 0
x2,8_28 0
x2,8_30 0
x2,8_34 0
x2,8_35 0
x2,9_1 0
x2,9_3 0
x2,9_4 0
x2,9_5 0
x2,9_9 0
x2,9_14 0
x2,9_17 0
x2,9_19 0
x2,9_21 0
x2,9_27 0
x2,9_28 0
x2,9_30 0
x2,9_34 0
x2,9_35 0
x2,10_1 0
x2,10_3 0
x2,10_4 0
x2,10_5 0
x2,10_9 0
x2,10_14 0
x2,10_17 0
x2,10_19 0
x2,10_21 0
x2,10_27 0
x2,10_28 0
x2,10_30 0
x2,10_34 0
x2,10_35 0
x2,11_1 0
x2,11_3 0
x2,11_4 0
x2,11_5 0
x2,11_9 0
x2,11_14 0
x2,11_17 0
x2,11_19 0
x2,11_21 0
x2,11_27 0
x2,11_28 0
x2,11_30 0
x2,11_34 0
x2,11_35 0
x2,12_1 0
x2,12_3 0
x2,12_4 0
x2,12_5 0
x2,12_9 0
x2,12_14 0
x2,12_17 0
x2,12_19 0
x2,12_21 0
x2,12_27 0
x2,12_28 0
x2,12_30 0
x2,12_34 0
x2,12_35 0
x2,13_1 0
x2,13_3 0
x2,13_4 0
x2,13_5 0
x2,13_9 0
x2,13_14 0
x2,13_17 0
x2,13_19 0
x2,13_21 0
x2,13_27 0
x2,13_28 0
x2,13_30 0
x2,13_34 0
x2,13_35 0
x2,14_1 0
x2,14_3 0
x2,14_4 0
x2,14_5 0
x2,14_9 0
x2,14_14 0
x2,14_17 0
x2,14_19 0
x2,14_21 0
x2,14_27 0
x2,14_28 0
x2,14_30 0
x2,14_34 0
x2,14_35 0
x3,4_1 0
x3,4_3 1
x3,4_4 0
x3,4_5 0
x3,4_9 0
x3,4_14 0
x3,4_17 0
x3,4_19 0
x3,4_21 0
x3,4_27 0
x3,4_28 0
x3,4_30 0
x3,4_34 0
x3,4_35 0
x3,5_1 0
x3,5_3 0
x3,5_4 0
x3,5_5 0
x3,5_9 1
x3,5_14 0
x3,5_17 0
x3,5_19 0
x3,5_21 0
x3,5_27 0
x3,5_28 0
x3,5_30 0
x3,5_34 0
x3,5_35 0
x3,6_1 0
x3,6_3 0
x3,6_4 0
x3,6_5 0
x3,6_9 0
x3,6_14 0
x3,6_17 0
x3,6_19 0
x3,6_21 0
x3,6_27 0
x3,6_28 0
x3,6_30 0
x3,6_34 0
x3,6_35 0
x3,7_1 0
x3,7_3 0
x3,7_4 0
x3,7_5 0
x3,7_9 0
x3,7_14 0
x3,7_17 0
x3,7_19 0
x3,7_21 0
x3,7_27 0
x3,7_28 0
x3,7_30 0
x3,7_34 0
x3,7_35 0
x3,8_1 0
x3,8_3 0
x3,8_4 0
x3,8_5 0
x3,8_9 0
x3,8_14 0
x3,8_17 0
x3,8_19 0
x3,8_21 0
x3,8_27 0
x3,8_28 0
x3,8_30 0
x3,8_34 0
x3,8_35 0
x3,9_1 0
x3,9_3 0
x3,9_4 0
x3,9_5 0
x3,9_9 0
x3,9_14 0
x3,9_17 0
x3,9_19 0
x3,9_21 0
x3,9_27 0
x3,9_28 0
x3,9_30 0
x3,9_34 0
x3,9_35 0
x3,10_1 0
x3,10_3 0
x3,10_4 0
x3,10_5 0
x3,10_9 0
x3,10_14 0
x3,10_17 0
x3,10_19 0
x3,10_21 0
x3,10_27 0
x3,10_28 0
x3,10_30 0
x3,10_34 0
x3,10_35 0
x3,11_1 0
x3,11_3 0
x3,11_4 0
x3,11_5 0
x3,11_9 0
x3,11_14 0
x3,11_17 0
x3,11_19 0
x3,11_21 0
x3,11_27 0
x3,11_28 0
x3,11_30 0
x3,11_34 0
x3,11_35 0
x3,12_1 0
x3,12_3 0
x3,12_4 0
x3,12_5 0
x3,12_9 0
x3,12_14 0
x3,12_17 0
x3,12_19 0
x3,12_21 0
x3,12_27 0
x3,12_28 0
x3,12_30 0
x3,12_34 0
x3,12_35 0
x3,13_1 0
x3,13_3 0
x3,13_4 0
x3,13_5 0
x3,13_9 0
x3,13_14 0
x3,13_17 0
x3,13_19 0
x3,13_21 0
x3,13_27 0
x3,13_28 0
x3,13_30 0
x3,13_34 0
x3,13_35 0
x3,14_1 0
x3,14_3 0
x3,14_4 0
x3,14_5 0
x3,14_9 0
x3,14_14 0
x3,14_17 0
x3,14_19 0
x3,14_21 0
x3,14_27 0
x3,14_28 0
x3,14_30 0
x3,14_34 0
x3,14_35 0
x4,5_1 0
x4,5_3 0
x4,5_4 0
x4,5_5 0
x4,5_9 0
x4,5_14 0
x4,5_17 0
x4,5_19 0
x4,5_21 0
x4,5_27 0
x4,5_28 0
x4,5_30 0
x4,5_34 0
x4,5_35 0
x4,6_1 0
x4,6_3 0
x4,6_4 0
x4,6_5 0
x4,6_9 0
x4,6_14 0
x4,6_17 0
x4,6_19 0
x4,6_21 0
x4,6_27 0
x4,6_28 0
x4,6_30 0
x4,6_34 0
x4,6_35 0
x4,7_1 0
x4,7_3 0
x4,7_4 0
x4,7_5 0
x4,7_9 0
x4,7_14 0
x4,7_17 0
x4,7_19 0
x4,7_21 0
x4,7_27 0
x4,7_28 0
x4,7_30 0
x4,7_34 0
x4,7_35 0
x4,8_1 0
x4,8_3 0
x4,8_4 0
x4,8_5 0
x4,8_9 0
x4,8_14 0
x4,8_17 0
x4,8_19 0
x4,8_21 0
x4,8_27 0
x4,8_28 0
x4,8_30 0
x4,8_34 0
x4,8_35 0
x4,9_1 0
x4,9_3 0
x4,9_4 0
x4,9_5 0
x4,9_9 0
x4,9_14 0
x4,9_17 0
x4,9_19 0
x4,9_21 0
x4,9_27 0
x4,9_28 0
x4,9_30 0
x4,9_34 0
x4,9_35 0
x4,10_1 0
x4,10_3 0
x4,10_4 0
x4,10_5 0
x4,10_9 0
x4,10_14 0
x4,10_17 0
x4,10_19 0
x4,10_21 0
x4,10_27 0
x4,10_28 0
x4,10_30 0
x4,10_34 0
x4,10_35 0
x4,11_1 0
x4,11_3 0
x4,11_4 0
x4,11_5 0
x4,11_9 0
x4,11_14 0
x4,11_17 0
x4,11_19 0
x4,11_21 0
x4,11_27 0
x4,11_28 0
x4,11_30 0
x4,11_34 0
x4,11_35 0
x4,12_1 0
x4,12_3 0
x4,12_4 0
x4,12_5 0
x4,12_9 0
x4,12_14 0
x4,12_17 0
x4,12_19 0
x4,12_21 0
x4,12_27 0
x4,12_28 0
x4,12_30 0
x4,12_34 0
x4,12_35 0
x4,13_1 0
x4,13_3 0
x4,13_4 0
x4,13_5 0
x4,13_9 0
x4,13_14 0
x4,13_17 0
x4,13_19 0
x4,13_21 0
x4,13_27 0
x4,13_28 0
x4,13_30 0
x4,13_34 0
x4,13_35 0
x4,14_1 0
x4,14_3 0
x4,14_4 0
x4,14_5 0
x4,14_9 0
x4,14_14 0
x4,14_17 0
x4,14_19 0
x4,14_21 0
x4,14_27 0
x4,14_28 0
x4,14_30 0
x4,14_34 0
x4,14_35 0
x5,6_1 0
x5,6_3 0
x5,6_4 0
x5,6_5 0
x5,6_9 0
x5,6_14 0
x5,6_17 0
x5,6_19 0
x5,6_21 0
x5,6_27 0
x5,6_28 0
x5,6_30 0
x5,6_34 0
x5,6_35 0
x5,7_1 0
x5,7_3 0
x5,7_4 0
x5,7_5 0
x5,7_9 0
x5,7_14 0
x5,7_17 0
x5,7_19 0
x5,7_21 0
x5,7_27 0
x5,7_28 0
x5,7_30 0
x5,7_34 0
x5,7_35 0
x5,8_1 0
x5,8_3 0
x5,8_4 0
x5,8_5 0
x5,8_9 0
x5,8_14 0
x5,8_17 0
x5,8_19 0
x5,8_21 0
x5,8_27 0
x5,8_28 0
x5,8_30 0
x5,8_34 0
x5,8_35 0
x5,9_1 0
x5,9_3 0
x5,9_4 0
x5,9_5 0
x5,9_9 0
x5,9_14 0
x5,9_17 0
x5,9_19 0
x5,9_21 0
x5,9_27 0
x5,9_28 0
x5,9_30 0
x5,9_34 0
x5,9_35 0
x5,10_1 0
x5,10_3 0
x5,10_4 0
x5,10_5 0
x5,10_9 0
x5,10_14 0
x5,10_17 0
x5,10_19 0
x5,10_21 0
x5,10_27 0
x5,10_28 0
x5,10_30 0
x5,10_34 0
x5,10_35 0
x5,11_1 0
x5,11_3 0
x5,11_4 0
x5,11_5 0
x5,11_9 0
x5,11_14 0
x5,11_17 0
x5,11_19 0
x5,11_21 0
x5,11_27 0
x5,11_28 0
x5,11_30 0
x5,11_34 0
x5,11_35 0
x5,12_1 0
x5,12_3 0
x5,12_4 0
x5,12_5 0
x5,12_9 0
x5,12_14 0
x5,12_17 0
x5,12_19 0
x5,12_21 0
x5,12_27 0
x5,12_28 0
x5,12_30 0
x5,12_34 0
x5,12_35 0
x5,13_1 0
x5,13_3 0
x5,13_4 0
x5,13_5 0
x5,13_9 0
x5,13_14 0
x5,13_17 0
x5,13_19 0
x5,13_21 0
x5,13_27 0
x5,13_28 0
x5,13_30 0
x5,13_34 0
x5,13_35 0
x5,14_1 0
x5,14_3 0
x5,14_4 0
x5,14_5 0
x5,14_9 0
x5,14_14 0
x5,14_17 0
x5,14_19 0
x5,14_21 0
x5,14_27 0
x5,14_28 0
x5,14_30 0
x5,14_34 0
x5,14_35 0
x6,7_1 0
x6,7_3 0
x6,7_4 0
x6,7_5 0
x6,7_9 0
x6,7_14 0
x6,7_17 0
x6,7_19 0
x6,7_21 0
x6,7_27 0
x6,7_28 0
x6,7_30 0
x6,7_34 0
x6,7_35 0
x6,8_1 0
x6,8_3 0
x6,8_4 0
x6,8_5 0
x6,8_9 0
x6,8_14 0
x6,8_17 0
x6,8_19 0
x6,8_21 0
x6,8_27 0
x6,8_28 0
x6,8_30 0
x6,8_34 0
x6,8_35 0
x6,9_1 0
x6,9_3 0
x6,9_4 0
x6,9_5 0
x6,9_9 0
x6,9_14 0
x6,9_17 0
x6,9_19 0
x6,9_21 0
x6,9_27 0
x6,9_28 0
x6,9_30 0
x6,9_34 0
x6,9_35 0
x6,10_1 0
x6,10_3 0
x6,10_4 0
x6,10_5 0
x6,10_9 0
x6,10_14 0
x6,10_17 0
x6,10_19 0
x6,10_21 0
x6,10_27 0
x6,10_28 0
x6,10_30 0
x6,10_34 0
x6,10_35 0
x6,11_1 0
x6,11_3 0
x6,11_4 0
x6,11_5 0
x6,11_9 0
x6,11_14 0
x6,11_17 0
x6,11_19 0
x6,11_21 0
x6,11_27 0
x6,11_28 0
x6,11_30 0
x6,11_34 0
x6,11_35 0
x6,12_1 0
x6,12_3 0
x6,12_4 0
x6,12_5 0
x6,12_9 0
x6,12_14 0
x6,12_17 0
x6,12_19 0
x6,12_21 0
x6,12_27 0
x6,12_28 0
x6,12_30 0
x6,12_34 0
x6,12_35 0
x6,13_1 0
x6,13_3 0
x6,13_4 0
x6,13_5 0
x6,13_9 0
x6,13_14 0
x6,13_17 0
x6,13_19 0
x6,13_21 0
x6,13_27 0
x6,13_28 0
x6,13_30 0
x6,13_34 0
x6,13_35 0
x6,14_1 0
x6,14_3 0
x6,14_4 0
x6,14_5 0
x6,14_9 0
x6,14_14 0
x6,14_17 0
x6,14_19 0
x6,14_21 0
x6,14_27 0
x6,14_28 0
x6,14_30 0
x6,14_34 0
x6,14_35 0
x7,8_1 0
x7,8_3 0
x7,8_4 0
x7,8_5 0
x7,8_9 0
x7,8_14 0
x7,8_17 0
x7,8_19 0
x7,8_21 0
x7,8_27 0
x7,8_28 0
x7,8_30 0
x7,8_34 0
x7,8_35 0
x7,9_1 0
x7,9_3 0
x7,9_4 0
x7,9_5 0
x7,9_9 0
x7,9_14 0
x7,9_17 0
x7,9_19 0
x7,9_21 0
x7,9_27 0
x7,9_28 0
x7,9_30 0
x7,9_34 0
x7,9_35 0
x7,10_1 0
x7,10_3 0
x7,10_4 0
x7,10_5 0
x7,10_9 0
x7,10_14 0
x7,10_17 0
x7,10_19 0
x7,10_21 0
x7,10_27 0
x7,10_28 0
x7,10_30 0
x7,10_34 0
x7,10_35 0
x7,11_1 0
x7,11_3 0
x7,11_4 0
x7,11_5 0
x7,11_9 0
x7,11_14 0
x7,11_17 0
x7,11_19 0
x7,11_21 0
x7,11_27 0
x7,11_28 0
x7,11_30 0
x7,11_34 0
x7,11_35 0
x7,12_1 0
x7,12_3 0
x7,12_4 0
x7,12_5 0
x7,12_9 0
x7,12_14 0
x7,12_17 0
x7,12_19 0
x7,12_21 0
x7,12_27 0
x7,12_28 0
x7,12_30 0
x7,12_34 0
x7,12_35 0
x7,13_1 0
x7,13_3 0
x7,13_4 0
x7,13_5 0
x7,13_9 0
x7,13_14 0
x7,13_17 0
x7,13_19 0
x7,13_21 0
x7,13_27 0
x7,13_28 0
x7,13_30 0
x7,13_34 0
x7,13_35 0
x7,14_1 0
x7,14_3 0
x7,14_4 0
x7,14_5 0
x7,14_9 0
x7,14_14 0
x7,14_17 0
x7,14_19 0
x7,14_21 0
x7,14_27 0
x7,14_28 0
x7,14_30 0
x7,14_34 0
x7,14_35 0
x8,9_1 0
x8,9_3 0
x8,9_4 0
x8,9_5 0
x8,9_9 0
x8,9_14 0
x8,9_17 0
x8,9_19 0
x8,9_21 0
x8,9_27 0
x8,9_28 0
x8,9_30 0
x8,9_34 0
x8,9_35 0
x8,10_1 0
x8,10_3 0
x8,10_4 0
x8,10_5 0
x8,10_9 0
x8,10_14 0
x8,10_17 0
x8,10_19 0
x8,10_21 0
x8,10_27 0
x8,10_28 0
x8,10_30 0
x8,10_34 0
x8,10_35 0
x8,11_1 0
x8,11_3 0
x8,11_4 0
x8,11_5 0
x8,11_9 0
x8,11_14 0
x8,11_17 0
x8,11_19 0
x8,11_21 0
x8,11_27 0
x8,11_28 0
x8,11_30 0
x8,11_34 0
x8,11_35 0
x8,12_1 0
x8,12_3 0
x8,12_4 0
x8,12_5 0
x8,12_9 0
x8,12_14 0
x8,12_17 0
x8,12_19 0
x8,12_21 0
x8,12_27 0
x8,12_28 0
x8,12_30 0
x8,12_34 0
x8,12_35 0
x8,13_1 0
x8,13_3 0
x8,13_4 0
x8,13_5 0
x8,13_9 0
x8,13_14 0
x8,13_17 0
x8,13_19 0
x8,13_21 0
x8,13_27 0
x8,13_28 0
x8,13_30 0
x8,13_34 0
x8,13_35 0
x8,14_1 0
x8,14_3 0
x8,14_4 0
x8,14_5 0
x8,14_9 0
x8,14_14 0
x8,14_17 0
x8,14_19 0
x8,14_21 0
x8,14_27 0
x8,14_28 0
x8,14_30 0
x8,14_34 0
x8,14_35 0
x9,10_1 0
x9,10_3 0
x9,10_4 0
x9,10_5 0
x9,10_9 0
x9,10_14 0
x9,10_17 0
x9,10_19 0
x9,10_21 0
x9,10_27 0
x9,10_28 0
x9,10_30 0
x9,10_34 0
x9,10_35 0
x9,11_1 0
x9,11_3 0
x9,11_4 0
x9,11_5 0
x9,11_9 0
x9,11_14 0
x9,11_17 0
x9,11_19 0
x9,11_21 0
x9,11_27 0
x9,11_28 0
x9,11_30 0
x9,11_34 0
x9,11_35 0
x9,12_1 0
x9,12_3 0
x9,12_4 0
x9,12_5 0
x9,12_9 0
x9,12_14 0
x9,12_17 0
x9,12_19 0
x9,12_21 0
x9,12_27 0
x9,12_28 0
x9,12_30 0
x9,12_34 0
x9,12_35 0
x9,13_1 0
x9,13_3 0
x9,13_4 0
x9,13_5 0
x9,13_9 0
x9,13_14 0
x9,13_17 0
x9,13_19 0
x9,13_21 0
x9,13_27 0
x9,13_28 0
x9,13_30 0
x9,13_34 0
x9,13_35 0
x9,14_1 0
x9,14_3 0
x9,14_4 0
x9,14_5 0
x9,14_9 0
x9,14_14 0
x9,14_17 0
x9,14_19 0
x9,14_21 0
x9,14_27 0
x9,14_28 0
x9,14_30 0
x9,14_34 0
x9,14_35 0
x10,11_1 0
x10,11_3 0
x10,11_4 0
x10,11_5 0
x10,11_9 0
x10,11_14 0
x10,11_17 0
x10,11_19 0
x10,11_21 0
x10,11_27 0
x10,11_28 0
x10,11_30 0
x10,11_34 0
x10,11_35 0
x10,12_1 0
x10,12_3 0
x10,12_4 0
x10,12_5 0
x10,12_9 0
x10,12_14 0
x10,12_17 0
x10,12_19 0
x10,12_21 0
x10,12_27 0
x10,12_28 0
x10,12_30 0
x10,12_34 0
x10,12_35 0
x10,13_1 0
x10,13_3 0
x10,13_4 0
x10,13_5 0
x10,13_9 0
x10,13_14 0
x10,13_17 0
x10,13_19 0
x10,13_21 0
x10,13_27 0
x10,13_28 0
x10,13_30 0
x10,13_34 0
x10,13_35 0
x10,14_1 0
x10,14_3 0
x10,14_4 0
x10,14_5 0
x10,14_9 0
x10,14_14 0
x10,14_17 0
x10,14_19 0
x10,14_21 0
x10,14_27 0
x10,14_28 0
x10,14_30 0
x10,14_34 0
x10,14_35 0
x11,12_1 0
x11,12_3 0
x11,12_4 0
x11,12_5 0
x11,12_9 0
x11,12_14 0
x11,12_17 0
x11,12_19 0
x11,12_21 0
x11,12_27 0
x11,12_28 0
x11,12_30 0
x11,12_34 0
x11,12_35 0
x11,13_1 0
x11,13_3 0
x11,13_4 0
x11,13_5 0
x11,13_9 0
x11,13_14 0
x11,13_17 0
x11,13_19 0
x11,13_21 0
x11,13_27 0
x11,13_28 0
x11,13_30 0
x11,13_34 0
x11,13_35 0
x11,14_1 0
x11,14_3 0
x11,14_4 0
x11,14_5 0
x11,14_9 0
x11,14_14 0
x11,14_17 0
x11,14_19 0
x11,14_21 0
x11,14_27 0
x11,14_28 0
x11,14_30 0
x11,14_34 0
x11,14_35 0
x12,13_1 0
x12,13_3 0
x12,13_4 0
x12,13_5 0
x12,13_9 0
x12,13_14 0
x12,13_17 0
x12,13_19 0
x12,13_21 0
x12,13_27 0
x12,13_28 0
x12,13_30 0
x12,13_34 0
x12,13_35 0
x12,14_1 0
x12,14_3 0
x12,14_4 0
x12,14_5 0
x12,14_9 0
x12,14_14 0
x12,14_17 0
x12,14_19 0
x12,14_21 0
x12,14_27 0
x12,14_28 0
x12,14_30 0
x12,14_34 0
x12,14_35 0
x13,14_1 0
x13,14_3 0
x13,14_4 0
x13,14_5 0
x13,14_9 0
x13,14_14 0
x13,14_17 0
x13,14_19 0
x13,14_21 0
x13,14_27 0
x13,14_28 0
x13,14_30 0
x13,14_34 0
x13,14_35 0
z0 1
z1 1
z2 1
z3 1
z4 1
z5 1
z6 1
z7 0
z8 0
z9 0
z10 0
z11 0
z12 0
z13 0
z14 0
p0 1
p1 2
p2 6
p3 20
p4 23
p5 29
p6 36
p7 37
p8 38
p9 39
p10 40
p11 41
p12 42
p13 43
p14 44
